Route #1: 43 29 34 35 37 19 
Route #2: 13 30 18 3 27 28 39 
Route #3: 24 42 20 40 9 31 23 
Route #4: 36 5 25 26 6 44 4 32 
Route #5: 12 38 21 15 7 2 14 17 
Route #6: 10 11 1 16 33 41 8 22 
cost 1119.59
